512.29,73.5,83.94
500.53,75.22,85.91
554.05,67.96,77.61
506.24,74.37,84.94
520.5,72.34,82.62
559.21,67.33,76.9
539.22,69.83,79.75
519.94,72.42,82.7
555.89,67.73,77.36
521.56,72.19,82.45
535.87,70.26,80.25
504.56,74.62,85.23
547.15,68.81,78.59
516.24,72.93,83.3
556.3,67.68,77.3
539.66,69.77,79.68
550.33,68.42,78.14
543.47,69.28,79.12
540.08,69.72,79.62
534.83,70.4,80.4
